c FILE /home/rafael/Documents/HappySet/MIHS/inputs/happygen/output/graph_scale_free_k5_p0.4_v100_20241127_083845.txt
c SOURCE This is a scale-free graph formed for the happy graph colouring problem.
c DESCRIPTION It was generated using the problem generator of Rhyd Lewis
c
c GRAPH STATS
c Seed                             = -2128296188
c Number of Nodes                  = 100
c Number of colours k              = 5
c Number of pre-assignments        = 40
c Number of links per new node     = 5
c Density                          = 0.0979798
c 
c The degrees of nodes 1 to 100, respectively, are as follows 
c [46, 30, 29, 28, 26, 25, 23, 23, 22, 21, 20, 19, 18, 18, 15, 14, 14, 13, 13, 13, 12, 12, 11, 11, 11, 10, 
c  10, 10, 10, 9, 9, 9, 9, 9, 9, 9, 8, 8, 8, 8, 8, 8, 8, 7, 7, 7, 7, 7, 7, 7, 7, 
c  7, 7, 6, 6, 6, 6, 6, 6, 6, 6, 6, 6, 6, 6, 6, 6, 6, 6, 6, 6, 6, 5, 5, 5, 5, 
c  5, 5, 5, 5, 5, 5, 5, 5, 5, 5, 5, 5, 5, 5, 5, 5, 5, 5, 5, 5, 5, 5, 5, 5] 
c  
p edge 100 485 5
e 1 2
e 1 3
e 1 4
e 1 5
e 1 6
e 1 7
e 1 8
e 1 9
e 1 11
e 1 12
e 1 14
e 1 15
e 1 18
e 1 21
e 1 22
e 1 23
e 1 26
e 1 27
e 1 29
e 1 30
e 1 37
e 1 38
e 1 41
e 1 42
e 1 45
e 1 50
e 1 55
e 1 57
e 1 58
e 1 59
e 1 60
e 1 62
e 1 67
e 1 71
e 1 73
e 1 76
e 1 77
e 1 79
e 1 80
e 1 82
e 1 83
e 1 87
e 1 88
e 1 91
e 1 95
e 1 98
e 2 3
e 2 4
e 2 5
e 2 6
e 2 7
e 2 8
e 2 10
e 2 11
e 2 12
e 2 13
e 2 14
e 2 22
e 2 26
e 2 27
e 2 28
e 2 34
e 2 39
e 2 42
e 2 43
e 2 44
e 2 45
e 2 56
e 2 57
e 2 63
e 2 64
e 2 84
e 2 85
e 2 88
e 2 94
e 3 4
e 3 5
e 3 6
e 3 9
e 3 11
e 3 14
e 3 15
e 3 16
e 3 18
e 3 31
e 3 33
e 3 34
e 3 37
e 3 38
e 3 40
e 3 44
e 3 48
e 3 49
e 3 56
e 3 60
e 3 69
e 3 77
e 3 80
e 3 84
e 3 94
e 3 97
e 3 100
e 4 5
e 4 6
e 4 7
e 4 9
e 4 10
e 4 12
e 4 21
e 4 24
e 4 26
e 4 28
e 4 32
e 4 33
e 4 35
e 4 36
e 4 39
e 4 40
e 4 44
e 4 52
e 4 54
e 4 62
e 4 65
e 4 71
e 4 74
e 4 96
e 4 98
e 5 7
e 5 8
e 5 11
e 5 13
e 5 14
e 5 15
e 5 17
e 5 28
e 5 30
e 5 54
e 5 55
e 5 56
e 5 57
e 5 59
e 5 61
e 5 63
e 5 75
e 5 78
e 5 79
e 5 84
e 5 93
e 5 98
e 6 7
e 6 8
e 6 9
e 6 12
e 6 14
e 6 15
e 6 16
e 6 17
e 6 19
e 6 22
e 6 23
e 6 34
e 6 37
e 6 47
e 6 50
e 6 61
e 6 71
e 6 74
e 6 75
e 6 85
e 6 91
e 7 9
e 7 10
e 7 12
e 7 13
e 7 17
e 7 19
e 7 23
e 7 30
e 7 32
e 7 33
e 7 43
e 7 47
e 7 59
e 7 62
e 7 69
e 7 77
e 7 81
e 7 93
e 8 9
e 8 13
e 8 16
e 8 19
e 8 20
e 8 21
e 8 24
e 8 27
e 8 31
e 8 38
e 8 41
e 8 45
e 8 51
e 8 57
e 8 61
e 8 64
e 8 74
e 8 78
e 8 86
e 9 10
e 9 12
e 9 16
e 9 20
e 9 21
e 9 25
e 9 36
e 9 47
e 9 48
e 9 53
e 9 58
e 9 69
e 9 78
e 9 89
e 9 95
e 9 97
e 10 11
e 10 12
e 10 15
e 10 22
e 10 26
e 10 31
e 10 46
e 10 49
e 10 60
e 10 63
e 10 68
e 10 72
e 10 82
e 10 86
e 10 93
e 10 96
e 10 100
e 11 17
e 11 23
e 11 24
e 11 27
e 11 29
e 11 30
e 11 32
e 11 46
e 11 51
e 11 65
e 11 68
e 11 83
e 11 90
e 11 92
e 11 94
e 12 13
e 12 16
e 12 25
e 12 29
e 12 34
e 12 42
e 12 51
e 12 53
e 12 54
e 12 59
e 12 78
e 12 80
e 13 17
e 13 18
e 13 26
e 13 30
e 13 32
e 13 36
e 13 40
e 13 44
e 13 47
e 13 49
e 13 55
e 13 61
e 13 72
e 14 33
e 14 35
e 14 37
e 14 48
e 14 50
e 14 58
e 14 62
e 14 64
e 14 66
e 14 69
e 14 73
e 14 75
e 14 81
e 15 19
e 15 23
e 15 28
e 15 29
e 15 35
e 15 48
e 15 51
e 15 54
e 15 82
e 15 86
e 16 20
e 16 38
e 16 45
e 16 46
e 16 55
e 16 69
e 16 73
e 16 80
e 16 90
e 17 21
e 17 28
e 17 37
e 17 39
e 17 54
e 17 65
e 17 70
e 17 85
e 17 88
e 18 20
e 18 25
e 18 29
e 18 32
e 18 42
e 18 46
e 18 49
e 18 50
e 18 75
e 18 97
e 19 32
e 19 56
e 19 68
e 19 70
e 19 77
e 19 78
e 19 82
e 19 86
e 19 98
e 20 38
e 20 41
e 20 52
e 20 63
e 20 72
e 20 74
e 20 76
e 20 85
e 20 99
e 21 25
e 21 27
e 21 35
e 21 75
e 21 77
e 21 79
e 21 93
e 22 26
e 22 43
e 22 48
e 22 72
e 22 76
e 22 82
e 22 89
e 22 98
e 23 31
e 23 32
e 23 33
e 23 39
e 23 56
e 23 83
e 24 26
e 24 30
e 24 39
e 24 51
e 24 52
e 24 57
e 24 62
e 24 87
e 25 32
e 25 70
e 25 74
e 25 84
e 25 87
e 25 88
e 25 99
e 26 47
e 26 66
e 26 99
e 27 45
e 27 65
e 27 66
e 27 67
e 27 70
e 28 34
e 28 44
e 28 49
e 28 58
e 28 100
e 29 37
e 29 38
e 29 42
e 29 46
e 29 83
e 30 31
e 30 64
e 30 79
e 31 35
e 31 41
e 31 55
e 31 63
e 32 50
e 33 40
e 33 43
e 33 80
e 33 91
e 34 52
e 34 65
e 34 85
e 34 87
e 35 53
e 35 79
e 35 84
e 35 95
e 36 44
e 36 46
e 36 60
e 36 67
e 36 76
e 36 83
e 37 60
e 37 61
e 38 72
e 38 81
e 39 70
e 39 92
e 39 96
e 40 45
e 40 66
e 40 73
e 40 91
e 41 43
e 41 47
e 41 68
e 41 86
e 42 89
e 42 91
e 42 99
e 43 66
e 43 67
e 43 94
e 44 58
e 45 94
e 46 59
e 47 64
e 48 73
e 48 87
e 49 53
e 49 81
e 50 52
e 50 68
e 51 90
e 51 99
e 52 92
e 52 97
e 53 57
e 53 92
e 53 96
e 54 95
e 55 89
e 56 81
e 58 71
e 59 100
e 60 76
e 61 88
e 62 89
e 63 71
e 64 90
e 65 67
e 66 90
e 67 95
e 68 92
e 69 97
e 70 93
e 71 96
e 72 100
n 3 1
n 8 3
n 10 2
n 14 1
n 17 5
n 19 3
n 25 5
n 29 2
n 30 5
n 35 1
n 41 3
n 44 1
n 45 3
n 46 2
n 51 3
n 52 5
n 54 5
n 55 5
n 57 3
n 58 1
n 59 2
n 61 3
n 63 2
n 66 1
n 67 1
n 69 1
n 72 2
n 73 1
n 75 1
n 76 5
n 78 3
n 80 1
n 81 1
n 85 5
n 87 5
n 91 4
n 92 5
n 93 2
n 96 2
n 98 3
